NAME: random-77-14924
TYPE: TSP
COMMENT: size=77 seed=14924
DIMENSION: 156
EDGE_WEIGHT_TYPE: EUC_2D
NODE_COORD_SECTION
+0 668 15
-0 668 15
+1 23 579
-1 462 515
+2 213 113
-2 779 563
+3 161 603
-3 329 237
+4 796 838
-4 26 429
+5 162 53
-5 633 473
+6 124 731
-6 792 799
+7 408 332
-7 133 599
+8 436 632
-8 145 886
+9 269 340
-9 866 160
+10 666 967
-10 884 243
+11 359 32
-11 50 743
+12 613 957
-12 891 909
+13 636 262
-13 665 612
+14 356 892
-14 577 131
+15 981 121
-15 141 809
+16 696 488
-16 511 954
+17 504 392
-17 968 840
+18 395 873
-18 725 779
+19 391 955
-19 192 538
+20 222 966
-20 504 646
+21 529 615
-21 431 874
+22 719 485
-22 152 215
+23 634 948
-23 661 609
+24 181 362
-24 419 303
+25 278 827
-25 762 405
+26 370 235
-26 723 857
+27 184 263
-27 437 395
+28 808 129
-28 465 150
+29 760 451
-29 530 626
+30 261 909
-30 388 638
+31 533 761
-31 353 460
+32 291 402
-32 69 303
+33 547 552
-33 929 62
+34 854 841
-34 343 31
+35 678 918
-35 459 151
+36 106 260
-36 308 186
+37 526 914
-37 653 631
+38 420 49
-38 188 75
+39 559 47
-39 1 129
+40 46 374
-40 142 129
+41 231 824
-41 125 863
+42 604 835
-42 645 657
+43 787 172
-43 36 716
+44 128 564
-44 163 663
+45 988 258
-45 744 148
+46 153 576
-46 430 832
+47 48 71
-47 705 582
+48 20 413
-48 340 410
+49 702 190
-49 664 819
+50 2 667
-50 228 683
+51 920 961
-51 744 473
+52 835 662
-52 890 21
+53 451 210
-53 804 4
+54 589 380
-54 521 752
+55 259 434
-55 22 140
+56 99 124
-56 868 678
+57 978 811
-57 194 986
+58 157 397
-58 780 81
+59 316 428
-59 315 596
+60 35 806
-60 901 958
+61 309 916
-61 854 868
+62 453 738
-62 680 101
+63 565 690
-63 863 78
+64 877 512
-64 883 82
+65 543 651
-65 399 627
+66 302 487
-66 319 898
+67 765 686
-67 38 873
+68 554 545
-68 273 642
+69 81 890
-69 512 730
+70 406 992
-70 182 997
+71 322 293
-71 860 233
+72 329 443
-72 902 805
+73 251 753
-73 586 16
+74 974 144
-74 431 557
+75 642 284
-75 943 93
+76 826 487
-76 491 561
+77 516 208
-77 360 295
PRECEDENCE_SECTION
+0 -0
+1 -1
+2 -2
+3 -3
+4 -4
+5 -5
+6 -6
+7 -7
+8 -8
+9 -9
+10 -10
+11 -11
+12 -12
+13 -13
+14 -14
+15 -15
+16 -16
+17 -17
+18 -18
+19 -19
+20 -20
+21 -21
+22 -22
+23 -23
+24 -24
+25 -25
+26 -26
+27 -27
+28 -28
+29 -29
+30 -30
+31 -31
+32 -32
+33 -33
+34 -34
+35 -35
+36 -36
+37 -37
+38 -38
+39 -39
+40 -40
+41 -41
+42 -42
+43 -43
+44 -44
+45 -45
+46 -46
+47 -47
+48 -48
+49 -49
+50 -50
+51 -51
+52 -52
+53 -53
+54 -54
+55 -55
+56 -56
+57 -57
+58 -58
+59 -59
+60 -60
+61 -61
+62 -62
+63 -63
+64 -64
+65 -65
+66 -66
+67 -67
+68 -68
+69 -69
+70 -70
+71 -71
+72 -72
+73 -73
+74 -74
+75 -75
+76 -76
+77 -77
EOF
